(set-logic UF)
(declare-sort S1 0)
(declare-sort S2 0)
(declare-sort S3 0)
(declare-sort S4 0)
(declare-sort S5 0)
(declare-sort S6 0)
(declare-sort S7 0)
(declare-sort S8 0)
(declare-sort S9 0)
(declare-sort S10 0)
(declare-sort S11 0)
(declare-sort S12 0)
(declare-sort S13 0)
(declare-sort S14 0)
(declare-sort S15 0)
(declare-sort S16 0)
(declare-sort S17 0)
(declare-sort S18 0)
(declare-fun f1 () S1)
(declare-fun f2 () S1)
(declare-fun f3 (S2 S3) S1)
(declare-fun f4 () S2)
(declare-fun f5 (S4 S3) S3)
(declare-fun f6 (S5 S6) S4)
(declare-fun f7 () S5)
(declare-fun f8 () S6)
(declare-fun f9 () S3)
(declare-fun f10 () S6)
(declare-fun f11 (S7 S6) S6)
(declare-fun f12 (S8 S6) S7)
(declare-fun f13 () S8)
(declare-fun f14 () S8)
(declare-fun f15 () S6)
(declare-fun f16 (S9 S3) S6)
(declare-fun f17 (S10 S3) S9)
(declare-fun f18 () S10)
(declare-fun f19 () S3)
(declare-fun f20 () S6)
(declare-fun f21 (S6 S6 S3) S2)
(declare-fun f22 () S3)
(declare-fun f23 () S6)
(declare-fun f24 (S11 S2) S6)
(declare-fun f25 () S11)
(declare-fun f26 (S14 S13) S13)
(declare-fun f27 (S15 S12) S14)
(declare-fun f28 () S15)
(declare-fun f29 (S17 S12) S12)
(declare-fun f30 (S18 S16) S17)
(declare-fun f31 () S18)
(declare-fun f32 () S11)
(declare-fun f33 (S6 S6) S1)
(declare-fun f34 () S8)
(declare-fun f35 () S8)
(declare-fun f36 () S6)
(assert (not (= (not (= (= (f3 f4 (f5 (f6 f7 f8) f9)) f1) (= (f3 f4 (f5 (f6 f7 f10) f9)) f1))) (not (= (= f1 (f3 (f21 f20 f15 (f5 (f6 f7 f23) f19)) (f5 (f6 f7 f10) f9))) (= f1 (f3 (f21 f20 f15 (f5 (f6 f7 f23) f19)) (f5 (f6 f7 f8) f9))))))))
(assert (= (not (= (= (f3 f4 (f5 (f6 f7 f8) f9)) f1) (= (f3 f4 (f5 (f6 f7 f10) f9)) f1))) (not (= (= f1 (f3 f4 (f5 (f6 f7 f8) f9))) (= f1 (f3 f4 (f5 (f6 f7 f10) f9)))))))
(assert (= (not (= (= f1 (f3 f4 (f5 (f6 f7 f8) f9))) (= f1 (f3 f4 (f5 (f6 f7 f10) f9))))) (not (= (= f1 (f3 (f21 f20 f15 (f5 (f6 f7 f23) f19)) (f5 (f6 f7 f10) f9))) (= f1 (f3 (f21 f20 f15 (f5 (f6 f7 f23) f19)) (f5 (f6 f7 f8) f9)))))))
(check-sat)
(exit)
